(benchmark gametime
:status unknown
:logic QF_AUFBV
:extrafuns ((gtINDEX98  BitVec[32]))
:extrafuns ((gtFIELD__bitsForTID0__gtAGG____anonstruct_D_Work_4  Array[32:32]))
:extrafuns ((gtINDEX99  BitVec[32]))
:extrafuns ((gtAGG__rtDWork  BitVec[32]))
:extrafuns ((gtINDEX96  BitVec[32]))
:extrafuns ((gtINDEX97  BitVec[32]))
:extrafuns ((gtINDEX94  BitVec[32]))
:extrafuns ((gtINDEX95  BitVec[32]))
:extrafuns ((gtINDEX92  BitVec[32]))
:extrafuns ((gtINDEX93  BitVec[32]))
:extrafuns ((gtINDEX91  BitVec[32]))
:extrafuns ((gtINDEX90  BitVec[32]))
:extrafuns ((gtINDEX89  BitVec[32]))
:extrafuns ((gtINDEX88  BitVec[32]))
:extrafuns ((gtINDEX86  BitVec[32]))
:extrafuns ((gtINDEX87  BitVec[32]))
:extrafuns ((gtINDEX84  BitVec[32]))
:extrafuns ((gtINDEX85  BitVec[32]))
:extrafuns ((gtINDEX83  BitVec[32]))
:extrafuns ((gtINDEX81  BitVec[32]))
:extrafuns ((gtINDEX82  BitVec[32]))
:extrafuns ((gtINDEX80  BitVec[32]))
:extrafuns ((gtINDEX78  BitVec[32]))
:extrafuns ((gtINDEX79  BitVec[32]))
:extrafuns ((gtINDEX76  BitVec[32]))
:extrafuns ((gtINDEX77  BitVec[32]))
:extrafuns ((gtINDEX74  BitVec[32]))
:extrafuns ((gtINDEX75  BitVec[32]))
:extrafuns ((gtINDEX72  BitVec[32]))
:extrafuns ((gtINDEX73  BitVec[32]))
:extrafuns ((gtINDEX70  BitVec[32]))
:extrafuns ((gtINDEX71  BitVec[32]))
:extrafuns ((gtINDEX68  BitVec[32]))
:extrafuns ((gtINDEX69  BitVec[32]))
:extrafuns ((gtINDEX66  BitVec[32]))
:extrafuns ((gtINDEX67  BitVec[32]))
:extrafuns ((gtINDEX64  BitVec[32]))
:extrafuns ((gtINDEX65  BitVec[32]))
:extrafuns ((gtINDEX62  BitVec[32]))
:extrafuns ((gtINDEX63  BitVec[32]))
:extrafuns ((gtINDEX60  BitVec[32]))
:extrafuns ((gtINDEX61  BitVec[32]))
:extrafuns ((gtINDEX58  BitVec[32]))
:extrafuns ((gtINDEX59  BitVec[32]))
:extrafuns ((gtINDEX56  BitVec[32]))
:extrafuns ((gtINDEX57  BitVec[32]))
:extrafuns ((gtINDEX54  BitVec[32]))
:extrafuns ((gtINDEX55  BitVec[32]))
:extrafuns ((gtINDEX52  BitVec[32]))
:extrafuns ((gtINDEX53  BitVec[32]))
:extrafuns ((gtINDEX50  BitVec[32]))
:extrafuns ((gtINDEX51  BitVec[32]))
:extrafuns ((gtINDEX48  BitVec[32]))
:extrafuns ((gtINDEX49  BitVec[32]))
:extrafuns ((gtINDEX47  BitVec[32]))
:extrafuns ((gtINDEX46  BitVec[32]))
:extrafuns ((gtINDEX44  BitVec[32]))
:extrafuns ((gtINDEX45  BitVec[32]))
:extrafuns ((gtINDEX42  BitVec[32]))
:extrafuns ((gtINDEX43  BitVec[32]))
:extrafuns ((gtINDEX41  BitVec[32]))
:extrafuns ((gtINDEX39  BitVec[32]))
:extrafuns ((gtINDEX40  BitVec[32]))
:extrafuns ((gtINDEX37  BitVec[32]))
:extrafuns ((gtINDEX38  BitVec[32]))
:extrafuns ((gtINDEX35  BitVec[32]))
:extrafuns ((gtINDEX36  BitVec[32]))
:extrafuns ((gtINDEX33  BitVec[32]))
:extrafuns ((gtINDEX34  BitVec[32]))
:extrafuns ((gtINDEX31  BitVec[32]))
:extrafuns ((gtINDEX32  BitVec[32]))
:extrafuns ((gtINDEX29  BitVec[32]))
:extrafuns ((gtINDEX30  BitVec[32]))
:extrafuns ((gtINDEX27  BitVec[32]))
:extrafuns ((gtINDEX28  BitVec[32]))
:extrafuns ((gtINDEX25  BitVec[32]))
:extrafuns ((gtINDEX26  BitVec[32]))
:extrafuns ((gtINDEX23  BitVec[32]))
:extrafuns ((gtINDEX24  BitVec[32]))
:extrafuns ((gtINDEX21  BitVec[32]))
:extrafuns ((gtINDEX22  BitVec[32]))
:extrafuns ((gtINDEX19  BitVec[32]))
:extrafuns ((gtINDEX20  BitVec[32]))
:extrafuns ((gtINDEX17  BitVec[32]))
:extrafuns ((gtINDEX18  BitVec[32]))
:extrafuns ((gtINDEX15  BitVec[32]))
:extrafuns ((gtINDEX16  BitVec[32]))
:extrafuns ((gtINDEX13  BitVec[32]))
:extrafuns ((gtINDEX14  BitVec[32]))
:extrafuns ((gtINDEX11  BitVec[32]))
:extrafuns ((gtINDEX12  BitVec[32]))
:extrafuns ((gtINDEX9  BitVec[32]))
:extrafuns ((gtINDEX10  BitVec[32]))
:extrafuns ((gtINDEX8  BitVec[32]))
:extrafuns ((gtINDEX7  BitVec[32]))
:extrafuns ((gtINDEX6  BitVec[32]))
:extrafuns ((gtINDEX5  BitVec[32]))
:extrafuns ((gtINDEX4  BitVec[32]))
:extrafuns ((gtINDEX3  BitVec[32]))
:extrafuns ((gtINDEX2  BitVec[32]))
:extrafuns ((gtINDEX1  BitVec[32]))
:extrafuns ((gtINDEX0  BitVec[32]))
:extrafuns ((gtFIELD__is_Eng__gtAGG____anonstruct_bitsForTID0_5_1_  Array[32:1]))
:extrafuns ((gtFIELD__is_Eng__gtAGG____anonstruct_bitsForTID0_5_2_  Array[32:1]))
:extrafuns ((sf_previousEvent_1_  BitVec[32]))
:extrafuns ((sfEvent__2_  BitVec[32]))
:extrafuns ((gtFIELD__is_Eng__gtAGG____anonstruct_bitsForTID0_5  Array[32:1]))
:extrafuns ((gtFIELD__sent__gtAGG____anonstruct_D_Work_4_1_  Array[32:32]))
:extrafuns ((gtFIELD__sent__gtAGG____anonstruct_D_Work_4_2_  Array[32:32]))
:extrafuns ((gtFIELD__is_active_Eng__gtAGG____anonstruct_bitsForTID0_5  Array[32:1]))
:extrafuns ((gtFIELD__temporalCounter_i5__gtAGG____anonstruct_D_Work_4  Array[32:32]))
:extrafuns ((gtFIELD__temporalCounter_i5__gtAGG____anonstruct_D_Work_4_1_  Array[32:32]))
:extrafuns ((gtFIELD__is_PURI__gtAGG____anonstruct_bitsForTID0_5  Array[32:2]))
:extrafuns ((gtFIELD__is_PURI__gtAGG____anonstruct_bitsForTID0_5_1_  Array[32:2]))
:extrafuns ((gtFIELD__n_t_a__gtAGG____anonstruct_D_Work_4  Array[32:32]))
:extrafuns ((gtFIELD__n_t_a__gtAGG____anonstruct_D_Work_4_1_  Array[32:32]))
:extrafuns ((sfEvent__1_  BitVec[32]))
:extrafuns ((gtFIELD__is_active_PURI__gtAGG____anonstruct_bitsForTID0_5  Array[32:1]))
:extrafuns ((gtFIELD__is_PVRP__gtAGG____anonstruct_bitsForTID0_5_1_  Array[32:2]))
:extrafuns ((gtFIELD__is_PVRP__gtAGG____anonstruct_bitsForTID0_5_2_  Array[32:2]))
:extrafuns ((gtFIELD__is_active_PVRP__gtAGG____anonstruct_bitsForTID0_5  Array[32:1]))
:extrafuns ((gtFIELD__is_active_PPVARP__gtAGG____anonstruct_bitsForTID0_5  Array[32:1]))
:extrafuns ((gtFIELD__is_PLRI__gtAGG____anonstruct_bitsForTID0_5_1_  Array[32:2]))
:extrafuns ((gtFIELD__is_PLRI__gtAGG____anonstruct_bitsForTID0_5_2_  Array[32:2]))
:extrafuns ((gtFIELD__is_active_PLRI__gtAGG____anonstruct_bitsForTID0_5  Array[32:1]))
:extrafuns ((gtFIELD__is_PAVI__gtAGG____anonstruct_bitsForTID0_5  Array[32:3]))
:extrafuns ((gtFIELD__is_active_PAVI__gtAGG____anonstruct_bitsForTID0_5  Array[32:1]))
:extrafuns ((sfEvent_  BitVec[32]))
:extrafuns ((gtFIELD__sent__gtAGG____anonstruct_D_Work_4  Array[32:32]))
:extrafuns ((gtFIELD__is_PVRP__gtAGG____anonstruct_bitsForTID0_5  Array[32:2]))
:extrafuns ((gtFIELD__is_PLRI__gtAGG____anonstruct_bitsForTID0_5  Array[32:2]))
:extrafuns ((gtFIELD__temporalCounter_i4__gtAGG____anonstruct_D_Work_4  Array[32:32]))
:extrafuns ((gtFIELD__temporalCounter_i4__gtAGG____anonstruct_D_Work_4_1_  Array[32:32]))
:extrafuns ((gtFIELD__temporalCounter_i3__gtAGG____anonstruct_D_Work_4  Array[32:32]))
:extrafuns ((gtFIELD__temporalCounter_i2__gtAGG____anonstruct_D_Work_4  Array[32:32]))
:extrafuns ((gtFIELD__temporalCounter_i1__gtAGG____anonstruct_D_Work_4  Array[32:32]))
:extrafuns ((gtFIELD__temporalCounter_i1__gtAGG____anonstruct_D_Work_4_1_  Array[32:32]))
:extrapreds ((constraint167 ))
:extrapreds ((constraint166 ))
:extrapreds ((constraint165 ))
:extrapreds ((constraint164 ))
:extrapreds ((constraint163 ))
:extrapreds ((constraint162 ))
:extrapreds ((constraint161 ))
:extrapreds ((constraint160 ))
:extrapreds ((constraint159 ))
:extrapreds ((constraint158 ))
:extrapreds ((constraint157 ))
:extrapreds ((constraint156 ))
:extrapreds ((constraint155 ))
:extrapreds ((constraint154 ))
:extrapreds ((constraint153 ))
:extrapreds ((constraint152 ))
:extrapreds ((constraint151 ))
:extrapreds ((constraint150 ))
:extrapreds ((constraint149 ))
:extrapreds ((constraint148 ))
:extrapreds ((constraint147 ))
:extrapreds ((constraint146 ))
:extrapreds ((constraint145 ))
:extrapreds ((constraint144 ))
:extrapreds ((constraint143 ))
:extrapreds ((constraint142 ))
:extrapreds ((constraint141 ))
:extrapreds ((constraint140 ))
:extrapreds ((constraint139 ))
:extrapreds ((constraint138 ))
:extrapreds ((constraint137 ))
:extrapreds ((constraint136 ))
:extrapreds ((constraint135 ))
:extrapreds ((constraint134 ))
:extrapreds ((constraint133 ))
:extrapreds ((constraint132 ))
:extrapreds ((constraint131 ))
:extrapreds ((constraint130 ))
:extrapreds ((constraint129 ))
:extrapreds ((constraint128 ))
:extrapreds ((constraint127 ))
:extrapreds ((constraint126 ))
:extrapreds ((constraint125 ))
:extrapreds ((constraint124 ))
:extrapreds ((constraint123 ))
:extrapreds ((constraint122 ))
:extrapreds ((constraint121 ))
:extrapreds ((constraint120 ))
:extrapreds ((constraint119 ))
:extrapreds ((constraint118 ))
:extrapreds ((constraint117 ))
:extrapreds ((constraint116 ))
:extrapreds ((constraint115 ))
:extrapreds ((constraint114 ))
:extrapreds ((constraint113 ))
:extrapreds ((constraint112 ))
:extrapreds ((constraint111 ))
:extrapreds ((constraint110 ))
:extrapreds ((constraint109 ))
:extrapreds ((constraint108 ))
:extrapreds ((constraint107 ))
:extrapreds ((constraint106 ))
:extrapreds ((constraint105 ))
:extrapreds ((constraint104 ))
:extrapreds ((constraint103 ))
:extrapreds ((constraint102 ))
:extrapreds ((constraint101 ))
:extrapreds ((constraint100 ))
:extrapreds ((constraint99 ))
:extrapreds ((constraint98 ))
:extrapreds ((constraint97 ))
:extrapreds ((constraint96 ))
:extrapreds ((constraint95 ))
:extrapreds ((constraint94 ))
:extrapreds ((constraint93 ))
:extrapreds ((constraint92 ))
:extrapreds ((constraint91 ))
:extrapreds ((constraint90 ))
:extrapreds ((constraint89 ))
:extrapreds ((constraint88 ))
:extrapreds ((constraint87 ))
:extrapreds ((constraint86 ))
:extrapreds ((constraint85 ))
:extrapreds ((constraint84 ))
:extrapreds ((constraint83 ))
:extrapreds ((constraint82 ))
:extrapreds ((constraint81 ))
:extrapreds ((constraint80 ))
:extrapreds ((constraint79 ))
:extrapreds ((constraint78 ))
:extrapreds ((constraint77 ))
:extrapreds ((constraint76 ))
:extrapreds ((constraint75 ))
:extrapreds ((constraint74 ))
:extrapreds ((constraint73 ))
:extrapreds ((constraint72 ))
:extrapreds ((constraint71 ))
:extrapreds ((constraint70 ))
:extrapreds ((constraint69 ))
:extrapreds ((constraint68 ))
:extrapreds ((constraint67 ))
:extrapreds ((constraint66 ))
:extrapreds ((constraint65 ))
:extrapreds ((constraint64 ))
:extrapreds ((constraint63 ))
:extrapreds ((constraint62 ))
:extrapreds ((constraint61 ))
:extrapreds ((constraint60 ))
:extrapreds ((constraint59 ))
:extrapreds ((constraint58 ))
:extrapreds ((constraint57 ))
:extrapreds ((constraint56 ))
:extrapreds ((constraint55 ))
:extrapreds ((constraint54 ))
:extrapreds ((constraint53 ))
:extrapreds ((constraint52 ))
:extrapreds ((constraint51 ))
:extrapreds ((constraint50 ))
:extrapreds ((constraint49 ))
:extrapreds ((constraint48 ))
:extrapreds ((constraint47 ))
:extrapreds ((constraint46 ))
:extrapreds ((constraint45 ))
:extrapreds ((constraint44 ))
:extrapreds ((constraint43 ))
:extrapreds ((constraint42 ))
:extrapreds ((constraint41 ))
:extrapreds ((constraint40 ))
:extrapreds ((constraint39 ))
:extrapreds ((constraint38 ))
:extrapreds ((constraint37 ))
:extrapreds ((constraint36 ))
:extrapreds ((constraint35 ))
:extrapreds ((constraint34 ))
:extrapreds ((constraint33 ))
:extrapreds ((constraint32 ))
:extrapreds ((constraint31 ))
:extrapreds ((constraint30 ))
:extrapreds ((constraint29 ))
:extrapreds ((constraint28 ))
:extrapreds ((constraint27 ))
:extrapreds ((constraint26 ))
:extrapreds ((constraint25 ))
:extrapreds ((constraint24 ))
:extrapreds ((constraint23 ))
:extrapreds ((constraint22 ))
:extrapreds ((constraint21 ))
:extrapreds ((constraint20 ))
:extrapreds ((constraint19 ))
:extrapreds ((constraint18 ))
:extrapreds ((constraint17 ))
:extrapreds ((constraint16 ))
:extrapreds ((constraint15 ))
:extrapreds ((constraint14 ))
:extrapreds ((constraint13 ))
:extrapreds ((constraint12 ))
:extrapreds ((constraint11 ))
:extrapreds ((constraint10 ))
:extrapreds ((constraint9 ))
:extrapreds ((constraint8 ))
:extrapreds ((constraint7 ))
:extrapreds ((constraint6 ))
:extrapreds ((constraint5 ))
:extrapreds ((constraint4 ))
:extrapreds ((constraint3 ))
:extrapreds ((constraint2 ))
:extrapreds ((constraint1 ))
:extrapreds ((constraint0 ))
:formula
(flet ($x853 (and constraint0 constraint1 constraint2 constraint3 constraint4 constraint5 constraint6 constraint7 constraint8 constraint9 constraint10 constraint11 constraint12 constraint13 constraint14 constraint15 constraint16 constraint17 constraint18 constraint19 constraint20 constraint21 constraint22 constraint23 constraint24 constraint25 constraint26 constraint27 constraint28 constraint29 constraint30 constraint31 constraint32 constraint33 constraint34 constraint35 constraint36 constraint37 constraint38 constraint39 constraint40 constraint41 constraint42 constraint43 constraint44 constraint45 constraint46 constraint47 constraint48 constraint49 constraint50 constraint51 constraint52 constraint53 constraint54 constraint55 constraint56 constraint57 constraint58 constraint59 constraint60 constraint61 constraint62 constraint63 constraint64 constraint65 constraint66 constraint67 constraint68 constraint69 constraint70 constraint71 constraint72 constraint73 constraint74 constraint75 constraint76 constraint77 constraint78 constraint79 constraint80 constraint81 constraint82 constraint83 constraint84 constraint85 constraint86 constraint87 constraint88 constraint89 constraint90 constraint91 constraint92 constraint93 constraint94 constraint95 constraint96 constraint97 constraint98 constraint99 constraint100 constraint101 constraint102 constraint103 constraint104 constraint105 constraint106 constraint107 constraint108 constraint109 constraint110 constraint111 constraint112 constraint113 constraint114 constraint115 constraint116 constraint117 constraint118 constraint119 constraint120 constraint121 constraint122 constraint123 constraint124 constraint125 constraint126 constraint127 constraint128 constraint129 constraint130 constraint131 constraint132 constraint133 constraint134 constraint135 constraint136 constraint137 constraint138 constraint139 constraint140 constraint141 constraint142 constraint143 constraint144 constraint145 constraint146 constraint147 constraint148 constraint149 constraint150 constraint151 constraint152 constraint153 constraint154 constraint155 constraint156 constraint157 constraint158 constraint159 constraint160 constraint161 constraint162 constraint163 constraint164 constraint165 constraint166 constraint167))
(flet ($x515 (= gtINDEX99 (select gtFIELD__bitsForTID0__gtAGG____anonstruct_D_Work_4 gtINDEX98)))
(flet ($x511 (= gtINDEX97 (select gtFIELD__bitsForTID0__gtAGG____anonstruct_D_Work_4 gtINDEX96)))
(flet ($x507 (= gtINDEX95 (select gtFIELD__bitsForTID0__gtAGG____anonstruct_D_Work_4 gtINDEX94)))
(flet ($x503 (= gtINDEX93 (select gtFIELD__bitsForTID0__gtAGG____anonstruct_D_Work_4 gtINDEX92)))
(flet ($x495 (= gtINDEX87 (select gtFIELD__bitsForTID0__gtAGG____anonstruct_D_Work_4 gtINDEX86)))
(flet ($x491 (= gtINDEX85 (select gtFIELD__bitsForTID0__gtAGG____anonstruct_D_Work_4 gtINDEX84)))
(flet ($x486 (= gtINDEX82 (select gtFIELD__bitsForTID0__gtAGG____anonstruct_D_Work_4 gtINDEX81)))
(flet ($x481 (= gtINDEX79 (select gtFIELD__bitsForTID0__gtAGG____anonstruct_D_Work_4 gtINDEX78)))
(flet ($x477 (= gtINDEX77 (select gtFIELD__bitsForTID0__gtAGG____anonstruct_D_Work_4 gtINDEX76)))
(flet ($x473 (= gtINDEX75 (select gtFIELD__bitsForTID0__gtAGG____anonstruct_D_Work_4 gtINDEX74)))
(flet ($x469 (= gtINDEX73 (select gtFIELD__bitsForTID0__gtAGG____anonstruct_D_Work_4 gtINDEX72)))
(flet ($x465 (= gtINDEX71 (select gtFIELD__bitsForTID0__gtAGG____anonstruct_D_Work_4 gtINDEX70)))
(flet ($x461 (= gtINDEX69 (select gtFIELD__bitsForTID0__gtAGG____anonstruct_D_Work_4 gtINDEX68)))
(flet ($x457 (= gtINDEX67 (select gtFIELD__bitsForTID0__gtAGG____anonstruct_D_Work_4 gtINDEX66)))
(flet ($x453 (= gtINDEX65 (select gtFIELD__bitsForTID0__gtAGG____anonstruct_D_Work_4 gtINDEX64)))
(flet ($x449 (= gtINDEX63 (select gtFIELD__bitsForTID0__gtAGG____anonstruct_D_Work_4 gtINDEX62)))
(flet ($x445 (= gtINDEX61 (select gtFIELD__bitsForTID0__gtAGG____anonstruct_D_Work_4 gtINDEX60)))
(flet ($x441 (= gtINDEX59 (select gtFIELD__bitsForTID0__gtAGG____anonstruct_D_Work_4 gtINDEX58)))
(flet ($x437 (= gtINDEX57 (select gtFIELD__bitsForTID0__gtAGG____anonstruct_D_Work_4 gtINDEX56)))
(flet ($x433 (= gtINDEX55 (select gtFIELD__bitsForTID0__gtAGG____anonstruct_D_Work_4 gtINDEX54)))
(flet ($x429 (= gtINDEX53 (select gtFIELD__bitsForTID0__gtAGG____anonstruct_D_Work_4 gtINDEX52)))
(flet ($x425 (= gtINDEX51 (select gtFIELD__bitsForTID0__gtAGG____anonstruct_D_Work_4 gtINDEX50)))
(flet ($x421 (= gtINDEX49 (select gtFIELD__bitsForTID0__gtAGG____anonstruct_D_Work_4 gtINDEX48)))
(flet ($x415 (= gtINDEX45 (select gtFIELD__bitsForTID0__gtAGG____anonstruct_D_Work_4 gtINDEX44)))
(flet ($x411 (= gtINDEX43 (select gtFIELD__bitsForTID0__gtAGG____anonstruct_D_Work_4 gtINDEX42)))
(flet ($x406 (= gtINDEX40 (select gtFIELD__bitsForTID0__gtAGG____anonstruct_D_Work_4 gtINDEX39)))
(flet ($x402 (= gtINDEX38 (select gtFIELD__bitsForTID0__gtAGG____anonstruct_D_Work_4 gtINDEX37)))
(flet ($x398 (= gtINDEX36 (select gtFIELD__bitsForTID0__gtAGG____anonstruct_D_Work_4 gtINDEX35)))
(flet ($x394 (= gtINDEX34 (select gtFIELD__bitsForTID0__gtAGG____anonstruct_D_Work_4 gtINDEX33)))
(flet ($x390 (= gtINDEX32 (select gtFIELD__bitsForTID0__gtAGG____anonstruct_D_Work_4 gtINDEX31)))
(flet ($x386 (= gtINDEX30 (select gtFIELD__bitsForTID0__gtAGG____anonstruct_D_Work_4 gtINDEX29)))
(flet ($x382 (= gtINDEX28 (select gtFIELD__bitsForTID0__gtAGG____anonstruct_D_Work_4 gtINDEX27)))
(flet ($x378 (= gtINDEX26 (select gtFIELD__bitsForTID0__gtAGG____anonstruct_D_Work_4 gtINDEX25)))
(flet ($x374 (= gtINDEX24 (select gtFIELD__bitsForTID0__gtAGG____anonstruct_D_Work_4 gtINDEX23)))
(flet ($x370 (= gtINDEX22 (select gtFIELD__bitsForTID0__gtAGG____anonstruct_D_Work_4 gtINDEX21)))
(flet ($x366 (= gtINDEX20 (select gtFIELD__bitsForTID0__gtAGG____anonstruct_D_Work_4 gtINDEX19)))
(flet ($x362 (= gtINDEX18 (select gtFIELD__bitsForTID0__gtAGG____anonstruct_D_Work_4 gtINDEX17)))
(flet ($x358 (= gtINDEX16 (select gtFIELD__bitsForTID0__gtAGG____anonstruct_D_Work_4 gtINDEX15)))
(flet ($x354 (= gtINDEX14 (select gtFIELD__bitsForTID0__gtAGG____anonstruct_D_Work_4 gtINDEX13)))
(flet ($x350 (= gtINDEX12 (select gtFIELD__bitsForTID0__gtAGG____anonstruct_D_Work_4 gtINDEX11)))
(flet ($x346 (= gtINDEX10 (select gtFIELD__bitsForTID0__gtAGG____anonstruct_D_Work_4 gtINDEX9)))
(let (?x321 (extract[0:0] bv1[32]))
(let (?x331 (store gtFIELD__is_Eng__gtAGG____anonstruct_bitsForTID0_5_1_ gtINDEX99 ?x321))
(flet ($x651 (iff constraint67 (= gtFIELD__is_Eng__gtAGG____anonstruct_bitsForTID0_5_2_ ?x331)))
(let (?x327 (select gtFIELD__is_Eng__gtAGG____anonstruct_bitsForTID0_5_1_ gtINDEX97))
(let (?x322 (store gtFIELD__is_Eng__gtAGG____anonstruct_bitsForTID0_5 gtINDEX95 ?x321))
(flet ($x645 (iff constraint64 (= gtFIELD__is_Eng__gtAGG____anonstruct_bitsForTID0_5_1_ ?x322)))
(let (?x318 (zero_extend[31] (select gtFIELD__is_Eng__gtAGG____anonstruct_bitsForTID0_5 gtINDEX93)))
(let (?x314 (store gtFIELD__sent__gtAGG____anonstruct_D_Work_4_1_ gtINDEX91 bv0[32]))
(flet ($x641 (iff constraint62 (= gtFIELD__sent__gtAGG____anonstruct_D_Work_4_2_ ?x314)))
(let (?x194 (bvmul bv4294967295[32] bv1[32]))
(flet ($x312 (= (select gtFIELD__sent__gtAGG____anonstruct_D_Work_4_1_ gtINDEX90) ?x194))
(flet ($x308 (= (select gtFIELD__sent__gtAGG____anonstruct_D_Work_4_1_ gtINDEX89) bv9[32]))
(flet ($x303 (= (select gtFIELD__sent__gtAGG____anonstruct_D_Work_4_1_ gtINDEX88) bv4[32]))
(let (?x299 (zero_extend[31] (select gtFIELD__is_Eng__gtAGG____anonstruct_bitsForTID0_5 gtINDEX87)))
(let (?x293 (select gtFIELD__is_active_Eng__gtAGG____anonstruct_bitsForTID0_5 gtINDEX85))
(let (?x290 (store gtFIELD__temporalCounter_i5__gtAGG____anonstruct_D_Work_4 gtINDEX83 bv0[32]))
(flet ($x629 (iff constraint56 (= gtFIELD__temporalCounter_i5__gtAGG____anonstruct_D_Work_4_1_ ?x290)))
(let (?x287 (store gtFIELD__is_PURI__gtAGG____anonstruct_bitsForTID0_5 gtINDEX82 (extract[1:0] bv1[32])))
(flet ($x627 (iff constraint55 (= gtFIELD__is_PURI__gtAGG____anonstruct_bitsForTID0_5_1_ ?x287)))
(flet ($x284 (= gtFIELD__n_t_a__gtAGG____anonstruct_D_Work_4_1_ (store gtFIELD__n_t_a__gtAGG____anonstruct_D_Work_4 gtINDEX80 bv0[32])))
(let (?x277 (select gtFIELD__is_PURI__gtAGG____anonstruct_bitsForTID0_5 gtINDEX79))
(let (?x272 (select gtFIELD__is_active_PURI__gtAGG____anonstruct_bitsForTID0_5 gtINDEX77))
(let (?x130 (extract[1:0] bv0[32]))
(let (?x269 (store gtFIELD__is_PVRP__gtAGG____anonstruct_bitsForTID0_5_1_ gtINDEX75 ?x130))
(flet ($x615 (iff constraint49 (= gtFIELD__is_PVRP__gtAGG____anonstruct_bitsForTID0_5_2_ ?x269)))
(let (?x264 (select gtFIELD__is_PVRP__gtAGG____anonstruct_bitsForTID0_5_1_ gtINDEX73))
(let (?x259 (select gtFIELD__is_PVRP__gtAGG____anonstruct_bitsForTID0_5_1_ gtINDEX71))
(let (?x254 (select gtFIELD__is_PVRP__gtAGG____anonstruct_bitsForTID0_5_1_ gtINDEX69))
(let (?x249 (select gtFIELD__is_active_PVRP__gtAGG____anonstruct_bitsForTID0_5 gtINDEX67))
(let (?x243 (select gtFIELD__is_active_PPVARP__gtAGG____anonstruct_bitsForTID0_5 gtINDEX65))
(let (?x240 (store gtFIELD__is_PLRI__gtAGG____anonstruct_bitsForTID0_5_1_ gtINDEX63 ?x130))
(flet ($x603 (iff constraint43 (= gtFIELD__is_PLRI__gtAGG____anonstruct_bitsForTID0_5_2_ ?x240)))
(let (?x235 (select gtFIELD__is_PLRI__gtAGG____anonstruct_bitsForTID0_5_1_ gtINDEX61))
(let (?x230 (select gtFIELD__is_PLRI__gtAGG____anonstruct_bitsForTID0_5_1_ gtINDEX59))
(let (?x225 (select gtFIELD__is_active_PLRI__gtAGG____anonstruct_bitsForTID0_5 gtINDEX57))
(let (?x219 (select gtFIELD__is_PAVI__gtAGG____anonstruct_bitsForTID0_5 gtINDEX55))
(let (?x214 (select gtFIELD__is_PAVI__gtAGG____anonstruct_bitsForTID0_5 gtINDEX53))
(let (?x209 (select gtFIELD__is_PAVI__gtAGG____anonstruct_bitsForTID0_5 gtINDEX51))
(let (?x204 (select gtFIELD__is_active_PAVI__gtAGG____anonstruct_bitsForTID0_5 gtINDEX49))
(flet ($x196 (= gtFIELD__sent__gtAGG____anonstruct_D_Work_4_1_ (store gtFIELD__sent__gtAGG____anonstruct_D_Work_4 gtINDEX47 ?x194)))
(flet ($x192 (= (select gtFIELD__sent__gtAGG____anonstruct_D_Work_4 gtINDEX46) bv4[32]))
(let (?x188 (zero_extend[31] (select gtFIELD__is_Eng__gtAGG____anonstruct_bitsForTID0_5 gtINDEX45)))
(let (?x182 (select gtFIELD__is_active_Eng__gtAGG____anonstruct_bitsForTID0_5 gtINDEX43))
(flet ($x179 (= (select gtFIELD__sent__gtAGG____anonstruct_D_Work_4 gtINDEX41) bv0[32]))
(let (?x168 (select gtFIELD__is_PURI__gtAGG____anonstruct_bitsForTID0_5 gtINDEX40))
(let (?x163 (select gtFIELD__is_active_PURI__gtAGG____anonstruct_bitsForTID0_5 gtINDEX38))
(let (?x160 (store gtFIELD__is_PVRP__gtAGG____anonstruct_bitsForTID0_5 gtINDEX36 ?x130))
(flet ($x561 (iff constraint22 (= gtFIELD__is_PVRP__gtAGG____anonstruct_bitsForTID0_5_1_ ?x160)))
(let (?x155 (select gtFIELD__is_PVRP__gtAGG____anonstruct_bitsForTID0_5 gtINDEX34))
(let (?x150 (select gtFIELD__is_PVRP__gtAGG____anonstruct_bitsForTID0_5 gtINDEX32))
(let (?x145 (select gtFIELD__is_PVRP__gtAGG____anonstruct_bitsForTID0_5 gtINDEX30))
(let (?x140 (select gtFIELD__is_active_PVRP__gtAGG____anonstruct_bitsForTID0_5 gtINDEX28))
(let (?x134 (select gtFIELD__is_active_PPVARP__gtAGG____anonstruct_bitsForTID0_5 gtINDEX26))
(let (?x131 (store gtFIELD__is_PLRI__gtAGG____anonstruct_bitsForTID0_5 gtINDEX24 ?x130))
(flet ($x549 (iff constraint16 (= gtFIELD__is_PLRI__gtAGG____anonstruct_bitsForTID0_5_1_ ?x131)))
(let (?x125 (select gtFIELD__is_PLRI__gtAGG____anonstruct_bitsForTID0_5 gtINDEX22))
(let (?x120 (select gtFIELD__is_PLRI__gtAGG____anonstruct_bitsForTID0_5 gtINDEX20))
(let (?x115 (select gtFIELD__is_active_PLRI__gtAGG____anonstruct_bitsForTID0_5 gtINDEX18))
(let (?x107 (select gtFIELD__is_PAVI__gtAGG____anonstruct_bitsForTID0_5 gtINDEX16))
(let (?x101 (select gtFIELD__is_PAVI__gtAGG____anonstruct_bitsForTID0_5 gtINDEX14))
(let (?x96 (select gtFIELD__is_PAVI__gtAGG____anonstruct_bitsForTID0_5 gtINDEX12))
(let (?x90 (select gtFIELD__is_active_PAVI__gtAGG____anonstruct_bitsForTID0_5 gtINDEX10))
(let (?x86 (select gtFIELD__temporalCounter_i5__gtAGG____anonstruct_D_Work_4 gtINDEX8))
(let (?x81 (select gtFIELD__temporalCounter_i4__gtAGG____anonstruct_D_Work_4 gtINDEX6))
(let (?x83 (store gtFIELD__temporalCounter_i4__gtAGG____anonstruct_D_Work_4 gtINDEX7 (bvadd ?x81 bv1[32])))
(flet ($x529 (iff constraint6 (= gtFIELD__temporalCounter_i4__gtAGG____anonstruct_D_Work_4_1_ ?x83)))
(let (?x77 (select gtFIELD__temporalCounter_i4__gtAGG____anonstruct_D_Work_4 gtINDEX5))
(let (?x73 (select gtFIELD__temporalCounter_i3__gtAGG____anonstruct_D_Work_4 gtINDEX4))
(let (?x69 (select gtFIELD__temporalCounter_i2__gtAGG____anonstruct_D_Work_4 gtINDEX3))
(let (?x63 (select gtFIELD__temporalCounter_i1__gtAGG____anonstruct_D_Work_4 gtINDEX1))
(let (?x66 (store gtFIELD__temporalCounter_i1__gtAGG____anonstruct_D_Work_4 gtINDEX2 (bvadd ?x63 bv1[32])))
(flet ($x521 (iff constraint2 (= gtFIELD__temporalCounter_i1__gtAGG____anonstruct_D_Work_4_1_ ?x66)))
(let (?x58 (select gtFIELD__temporalCounter_i1__gtAGG____anonstruct_D_Work_4 gtINDEX0))
(flet ($x852 (and (iff constraint0 (= sfEvent_ bv8[32])) (iff constraint1 (bvult ?x58 bv4294967295[32])) $x521 (iff constraint3 (not (bvult ?x69 bv4294967295[32]))) (iff constraint4 (not (bvult ?x73 bv4294967295[32]))) (iff constraint5 (bvult ?x77 bv4294967295[32])) $x529 (iff constraint7 (not (bvult ?x86 bv4294967295[32]))) (iff constraint8 (not (= (zero_extend[31] ?x90) bv0[32]))) (iff constraint9 (not (= (zero_extend[29] ?x96) bv1[32]))) (iff constraint10 (not (= (zero_extend[29] ?x101) bv2[32]))) (iff constraint11 (= (zero_extend[29] ?x107) bv3[32])) (iff constraint12 (not (= sfEvent_ bv6[32]))) (iff constraint13 (not (= (zero_extend[31] ?x115) bv0[32]))) (iff constraint14 (not (= (zero_extend[30] ?x120) bv1[32]))) (iff constraint15 (not (= (zero_extend[30] ?x125) bv2[32]))) $x549 (iff constraint17 (not (not (= (zero_extend[31] ?x134) bv0[32])))) (iff constraint18 (not (= (zero_extend[31] ?x140) bv0[32]))) (iff constraint19 (not (= (zero_extend[30] ?x145) bv1[32]))) (iff constraint20 (not (= (zero_extend[30] ?x150) bv2[32]))) (iff constraint21 (not (= (zero_extend[30] ?x155) bv3[32]))) $x561 (iff constraint23 (not (= (zero_extend[31] ?x163) bv0[32]))) (iff constraint24 (= (zero_extend[30] ?x168) bv1[32])) (iff constraint25 (not (= sfEvent_ bv4[32]))) (iff constraint26 (not (= sfEvent_ bv5[32]))) (iff constraint27 (not $x179)) (iff constraint28 (not (= (zero_extend[31] ?x182) bv0[32]))) (iff constraint29 (= ?x188 bv1[32])) (iff constraint30 $x192) (iff constraint31 $x196) (iff constraint32 (= sf_previousEvent_1_ sfEvent_)) (iff constraint33 (= sfEvent__1_ bv5[32])) (iff constraint34 (not (= sfEvent__1_ bv8[32]))) (iff constraint35 (not (= (zero_extend[31] ?x204) bv0[32]))) (iff constraint36 (not (= (zero_extend[29] ?x209) bv1[32]))) (iff constraint37 (not (= (zero_extend[29] ?x214) bv2[32]))) (iff constraint38 (= (zero_extend[29] ?x219) bv3[32])) (iff constraint39 (not (= sfEvent__1_ bv6[32]))) (iff constraint40 (not (= (zero_extend[31] ?x225) bv0[32]))) (iff constraint41 (not (= (zero_extend[30] ?x230) bv1[32]))) (iff constraint42 (not (= (zero_extend[30] ?x235) bv2[32]))) $x603 (iff constraint44 (not (not (= (zero_extend[31] ?x243) bv0[32])))) (iff constraint45 (not (= (zero_extend[31] ?x249) bv0[32]))) (iff constraint46 (not (= (zero_extend[30] ?x254) bv1[32]))) (iff constraint47 (not (= (zero_extend[30] ?x259) bv2[32]))) (iff constraint48 (not (= (zero_extend[30] ?x264) bv3[32]))) $x615 (iff constraint50 (not (= (zero_extend[31] ?x272) bv0[32]))) (iff constraint51 (= (zero_extend[30] ?x277) bv1[32])) (iff constraint52 (not (= sfEvent__1_ bv4[32]))) (iff constraint53 (= sfEvent__1_ bv5[32])) (iff constraint54 $x284) $x627 $x629 (iff constraint57 (not (= (zero_extend[31] ?x293) bv0[32]))) (iff constraint58 (= ?x299 bv1[32])) (iff constraint59 (not $x303)) (iff constraint60 (not $x308)) (iff constraint61 $x312) $x641 (iff constraint63 (= ?x318 bv1[32])) $x645 (iff constraint65 (= sfEvent__2_ sf_previousEvent_1_)) (iff constraint66 (= (zero_extend[31] ?x327) bv1[32])) $x651 (iff constraint68 (= gtINDEX0 gtAGG__rtDWork)) (iff constraint69 (= gtINDEX1 gtAGG__rtDWork)) (iff constraint70 (= gtINDEX2 gtAGG__rtDWork)) (iff constraint71 (= gtINDEX3 gtAGG__rtDWork)) (iff constraint72 (= gtINDEX4 gtAGG__rtDWork)) (iff constraint73 (= gtINDEX5 gtAGG__rtDWork)) (iff constraint74 (= gtINDEX6 gtAGG__rtDWork)) (iff constraint75 (= gtINDEX7 gtAGG__rtDWork)) (iff constraint76 (= gtINDEX8 gtAGG__rtDWork)) (iff constraint77 (= gtINDEX9 gtAGG__rtDWork)) (iff constraint78 $x346) (iff constraint79 (= gtINDEX11 gtAGG__rtDWork)) (iff constraint80 $x350) (iff constraint81 (= gtINDEX13 gtAGG__rtDWork)) (iff constraint82 $x354) (iff constraint83 (= gtINDEX15 gtAGG__rtDWork)) (iff constraint84 $x358) (iff constraint85 (= gtINDEX17 gtAGG__rtDWork)) (iff constraint86 $x362) (iff constraint87 (= gtINDEX19 gtAGG__rtDWork)) (iff constraint88 $x366) (iff constraint89 (= gtINDEX21 gtAGG__rtDWork)) (iff constraint90 $x370) (iff constraint91 (= gtINDEX23 gtAGG__rtDWork)) (iff constraint92 $x374) (iff constraint93 (= gtINDEX25 gtAGG__rtDWork)) (iff constraint94 $x378) (iff constraint95 (= gtINDEX27 gtAGG__rtDWork)) (iff constraint96 $x382) (iff constraint97 (= gtINDEX29 gtAGG__rtDWork)) (iff constraint98 $x386) (iff constraint99 (= gtINDEX31 gtAGG__rtDWork)) (iff constraint100 $x390) (iff constraint101 (= gtINDEX33 gtAGG__rtDWork)) (iff constraint102 $x394) (iff constraint103 (= gtINDEX35 gtAGG__rtDWork)) (iff constraint104 $x398) (iff constraint105 (= gtINDEX37 gtAGG__rtDWork)) (iff constraint106 $x402) (iff constraint107 (= gtINDEX39 gtAGG__rtDWork)) (iff constraint108 $x406) (iff constraint109 (= gtINDEX41 gtAGG__rtDWork)) (iff constraint110 (= gtINDEX42 gtAGG__rtDWork)) (iff constraint111 $x411) (iff constraint112 (= gtINDEX44 gtAGG__rtDWork)) (iff constraint113 $x415) (iff constraint114 (= gtINDEX46 gtAGG__rtDWork)) (iff constraint115 (= gtINDEX47 gtAGG__rtDWork)) (iff constraint116 (= gtINDEX48 gtAGG__rtDWork)) (iff constraint117 $x421) (iff constraint118 (= gtINDEX50 gtAGG__rtDWork)) (iff constraint119 $x425) (iff constraint120 (= gtINDEX52 gtAGG__rtDWork)) (iff constraint121 $x429) (iff constraint122 (= gtINDEX54 gtAGG__rtDWork)) (iff constraint123 $x433) (iff constraint124 (= gtINDEX56 gtAGG__rtDWork)) (iff constraint125 $x437) (iff constraint126 (= gtINDEX58 gtAGG__rtDWork)) (iff constraint127 $x441) (iff constraint128 (= gtINDEX60 gtAGG__rtDWork)) (iff constraint129 $x445) (iff constraint130 (= gtINDEX62 gtAGG__rtDWork)) (iff constraint131 $x449) (iff constraint132 (= gtINDEX64 gtAGG__rtDWork)) (iff constraint133 $x453) (iff constraint134 (= gtINDEX66 gtAGG__rtDWork)) (iff constraint135 $x457) (iff constraint136 (= gtINDEX68 gtAGG__rtDWork)) (iff constraint137 $x461) (iff constraint138 (= gtINDEX70 gtAGG__rtDWork)) (iff constraint139 $x465) (iff constraint140 (= gtINDEX72 gtAGG__rtDWork)) (iff constraint141 $x469) (iff constraint142 (= gtINDEX74 gtAGG__rtDWork)) (iff constraint143 $x473) (iff constraint144 (= gtINDEX76 gtAGG__rtDWork)) (iff constraint145 $x477) (iff constraint146 (= gtINDEX78 gtAGG__rtDWork)) (iff constraint147 $x481) (iff constraint148 (= gtINDEX80 gtAGG__rtDWork)) (iff constraint149 (= gtINDEX81 gtAGG__rtDWork)) (iff constraint150 $x486) (iff constraint151 (= gtINDEX83 gtAGG__rtDWork)) (iff constraint152 (= gtINDEX84 gtAGG__rtDWork)) (iff constraint153 $x491) (iff constraint154 (= gtINDEX86 gtAGG__rtDWork)) (iff constraint155 $x495) (iff constraint156 (= gtINDEX88 gtAGG__rtDWork)) (iff constraint157 (= gtINDEX89 gtAGG__rtDWork)) (iff constraint158 (= gtINDEX90 gtAGG__rtDWork)) (iff constraint159 (= gtINDEX91 gtAGG__rtDWork)) (iff constraint160 (= gtINDEX92 gtAGG__rtDWork)) (iff constraint161 $x503) (iff constraint162 (= gtINDEX94 gtAGG__rtDWork)) (iff constraint163 $x507) (iff constraint164 (= gtINDEX96 gtAGG__rtDWork)) (iff constraint165 $x511) (iff constraint166 (= gtINDEX98 gtAGG__rtDWork)) (iff constraint167 $x515)))
(and $x852 $x853)))))))))))))))))))))))))))))))))))))))))))))))))))))))))))))))))))))))))))))))))))))))))))))))))))))))))))))))))))))
)
